30
91 69
25 31
27 56
89 49
6 43
19 90
17 92
89 31
43 47
94 48
64 22
69 27
52 44
82 87
76 90
89 95
83 28
24 63
95 59
64 58
50 69
42 27
43 97
88 2
72 99
54 44
49 89
66 33
46 66
14 31
